1 1 2 0
1 1 -3 0
1 -1 -4 0
1 -5 -2 0
1 -5 3 0
1 5 -6 0
1 7 -8 0
1 -7 -9 0
1 7 -10 0
1 -7 -4 0
1 -11 -8 0
1 -11 -12 0
1 11 2 0
1 11 3 0
1 -11 -9 0
1 -11 -7 0
1 3 13 0
1 3 -14 0
1 -3 11 0
1 -3 15 0
1 3 16 0
1 3 -17 0
1 -3 -18 0
1 -3 7 0
1 -3 1 0
1 3 -6 0
1 -6 19 0
1 6 5 0
1 -6 -3 0
1 6 -18 0
1 6 -7 0
1 6 -1 0
1 -2 1 0
1 -2 -4 0
1 4 13 0
1 4 20 0
1 -4 5 0
1 -4 -2 0
1 4 -21 0
1 4 -22 0
1 4 -23 0
1 18 8 0
1 -18 12 0
1 18 -24 0
1 18 9 0
1 18 -6 0
1 -24 8 0
1 24 -12 0
1 -24 3 0
1 -24 9 0
1 24 18 0
1 24 -6 0
1 17 -14 0
1 -17 -25 0
1 -17 -26 0
1 -17 -3 0
1 -17 -9 0
1 17 -21 0
1 -17 6 0
1 14 25 0
1 -14 20 0
1 14 -26 0
1 -14 27 0
1 -14 -9 0
1 14 28 0
1 14 -6 0
1 9 29 0
1 -9 12 0
1 -9 14 0
1 9 30 0
1 -9 31 0
1 -9 -32 0
1 -9 33 0
1 -9 -18 0
1 -12 34 0
1 -12 29 0
1 -12 35 0
1 -12 14 0
1 -12 30 0
1 -12 32 0
1 12 -7 0
1 12 -36 0
1 -27 -8 0
1 27 -13 0
1 -27 14 0
1 27 -24 0
1 27 11 0
1 27 -37 0
1 -27 16 0
1 27 -17 0
1 27 -18 0
1 -8 -38 0
1 8 -13 0
1 -8 24 0
1 8 -30 0
1 8 27 0
1 -8 17 0
1 8 -36 0
1 -32 29 0
1 -32 25 0
1 32 26 0
1 32 -16 0
1 32 28 0
1 29 12 0
1 29 13 0
1 29 25 0
1 -29 32 0
1 29 28 0
1 -29 39 0
1 -31 34 0
1 31 12 0
1 -31 26 0
1 31 9 0
1 -31 -28 0
1 34 12 0
1 34 -26 0
1 -34 -39 0
1 39 -29 0
1 39 -14 0
1 39 40 0
1 39 32 0
1 39 17 0
1 39 -41 0
1 -26 34 0
1 26 -14 0
1 26 -42 0
1 -26 -40 0
1 -26 31 0
1 -26 32 0
1 -26 39 0
1 -28 -34 0
1 28 -14 0
1 -28 -43 0
1 28 -31 0
1 -28 -32 0
1 28 44 0
1 28 -45 0
1 25 29 0
1 25 43 0
1 25 -30 0
1 25 32 0
1 25 17 0
1 -25 -28 0
1 25 46 0
1 -25 36 0
1 -47 -48 0
1 -47 49 0
1 -47 50 0
1 -47 51 0
1 -47 -1 0
1 -47 52 0
1 -49 -53 0
1 -49 50 0
1 49 51 0
1 -10 -48 0
1 -10 -54 0
1 -10 55 0
1 10 -56 0
1 -10 -50 0
1 10 -51 0
1 -10 57 0
1 10 -58 0
1 -56 48 0
1 -56 59 0
1 -56 -54 0
1 -56 60 0
1 56 -50 0
1 56 -57 0
1 -56 58 0
1 -56 -10 0
1 59 -20 0
1 -59 49 0
1 -59 51 0
1 59 -61 0
1 -59 -21 0
1 59 22 0
1 -59 -10 0
1 51 -59 0
1 -51 -20 0
1 -51 56 0
1 -51 -49 0
1 -51 -61 0
1 51 21 0
1 48 62 0
1 -48 63 0
1 48 -64 0
1 -48 -65 0
1 48 -49 0
1 48 66 0
1 50 48 0
1 50 -56 0
1 -50 49 0
1 -50 67 0
1 -50 -61 0
1 50 -66 0
1 -50 -68 0
1 50 -10 0
1 50 47 0
1 -22 -54 0
1 22 -69 0
1 -22 -55 0
1 -22 2 0
1 -22 51 0
1 -22 58 0
1 22 18 0
1 -22 68 0
1 -22 -4 0
1 69 55 0
1 -69 -65 0
1 69 -2 0
1 69 -51 0
1 -69 58 0
1 -69 4 0
1 21 70 0
1 -21 71 0
1 21 -51 0
1 21 -66 0
1 21 -72 0
1 21 73 0
1 20 -59 0
1 20 -14 0
1 20 64 0
1 20 55 0
1 -20 -70 0
1 20 2 0
1 -20 51 0
1 20 21 0
1 -20 4 0
1 55 -74 0
1 -55 58 0
1 55 75 0
1 -55 13 0
1 55 20 0
1 55 -69 0
1 55 76 0
1 55 -10 0
1 -58 -74 0
1 -58 55 0
1 58 56 0
1 -58 -76 0
1 -58 21 0
1 -58 -77 0
1 58 22 0
1 54 78 0
1 -54 -20 0
1 54 -69 0
1 -54 56 0
1 54 -76 0
1 54 21 0
1 -54 -22 0
1 -54 10 0
1 57 -74 0
1 57 -78 0
1 57 -54 0
1 -57 69 0
1 57 76 0
1 -57 79 0
1 57 21 0
1 57 -80 0
1 -57 22 0
1 -57 -10 0
1 16 -8 0
1 16 55 0
1 -16 70 0
1 16 -27 0
1 16 58 0
1 -16 72 0
1 16 6 0
1 13 -63 0
1 13 55 0
1 -13 70 0
1 13 2 0
1 13 3 0
1 -13 27 0
1 -13 72 0
1 -13 73 0
1 13 4 0
1 -13 -6 0
1 81 19 0
1 81 8 0
1 81 55 0
1 81 71 0
1 -81 -82 0
1 -81 27 0
1 -81 -31 0
1 81 79 0
1 81 58 0
1 81 -72 0
1 81 73 0
1 -81 -23 0
1 75 -19 0
1 75 -34 0
1 -75 55 0
1 -75 -70 0
1 -75 -71 0
1 -75 -82 0
1 -75 -15 0
1 75 27 0
1 75 81 0
1 75 72 0
1 -75 -73 0
1 75 23 0
1 71 75 0
1 71 -13 0
1 71 -43 0
1 71 83 0
1 -71 30 0
1 -71 -16 0
1 71 73 0
1 71 45 0
1 -71 36 0
1 73 -13 0
1 73 -20 0
1 73 -71 0
1 -73 30 0
1 -73 -84 0
1 73 81 0
1 -73 16 0
1 -73 21 0
1 73 85 0
1 73 36 0
1 70 -74 0
1 -70 13 0
1 70 -86 0
1 70 87 0
1 70 76 0
1 70 81 0
1 70 -16 0
1 -70 -21 0
1 70 88 0
1 72 -74 0
1 72 -75 0
1 72 -70 0
1 -72 -87 0
1 72 -76 0
1 72 16 0
1 -72 -85 0
1 -30 -19 0
1 -30 -8 0
1 30 12 0
1 30 -25 0
1 -30 71 0
1 30 82 0
1 30 76 0
1 -30 -9 0
1 -30 28 0
1 -30 -73 0
1 30 -23 0
1 -30 36 0
1 -36 74 0
1 36 8 0
1 -36 19 0
1 -36 12 0
1 36 -82 0
1 36 15 0
1 36 -9 0
1 -36 -23 0
1 43 19 0
1 -43 -35 0
1 43 71 0
1 43 87 0
1 -43 82 0
1 43 15 0
1 43 28 0
1 43 73 0
1 43 45 0
1 -45 38 0
1 -45 35 0
1 45 -82 0
1 45 33 0
1 45 -28 0
1 45 -73 0
1 45 -88 0
1 -15 -19 0
1 15 75 0
1 15 40 0
1 -15 -43 0
1 15 89 0
1 -15 -46 0
1 -15 36 0
1 19 90 0
1 -19 75 0
1 19 -40 0
1 -19 30 0
1 19 6 0
1 -19 91 0
1 19 46 0
1 -19 -45 0
1 -19 36 0
1 82 -75 0
1 82 92 0
1 82 86 0
1 82 -43 0
1 -82 2 0
1 -82 30 0
1 82 -93 0
1 -82 -94 0
1 -82 85 0
1 -82 36 0
1 23 -86 0
1 -23 82 0
1 -23 81 0
1 23 4 0
1 23 94 0
1 -23 -85 0
1 40 -35 0
1 40 86 0
1 40 -15 0
1 40 -33 0
1 40 28 0
1 40 -39 0
1 -40 46 0
1 46 -25 0
1 46 40 0
1 46 -15 0
1 -46 37 0
1 46 28 0
1 46 39 0
1 46 85 0
1 -95 -38 0
1 95 35 0
1 95 96 0
1 95 -91 0
1 -95 -42 0
1 -95 97 0
1 -95 44 0
1 -91 -19 0
1 -91 -35 0
1 91 -96 0
1 -91 42 0
1 -91 33 0
1 91 44 0
1 -91 -94 0
1 33 -35 0
1 33 98 0
1 -33 -99 0
1 33 -40 0
1 -33 -43 0
1 -33 -100 0
1 33 -9 0
1 -33 101 0
1 -33 -91 0
1 33 -45 0
1 -35 12 0
1 35 98 0
1 35 43 0
1 -35 -100 0
1 35 -33 0
1 35 -102 0
1 35 91 0
1 35 45 0
1 37 92 0
1 -37 95 0
1 -37 -40 0
1 -37 -100 0
1 -37 -103 0
1 -37 -104 0
1 -37 89 0
1 38 8 0
1 -38 92 0
1 -38 95 0
1 38 -100 0
1 38 -37 0
1 38 104 0
1 38 -89 0
1 38 46 0
1 38 45 0
1 99 -96 0
1 -99 42 0
1 99 -92 0
1 99 44 0
1 -99 102 0
1 99 41 0
1 102 -35 0
1 102 -99 0
1 -102 42 0
1 -102 -44 0
1 -98 -35 0
1 98 -96 0
1 -98 105 0
1 98 -101 0
1 -98 -44 0
1 -98 -41 0
1 -101 -35 0
1 101 -33 0
1 101 44 0
1 101 41 0
1 -41 -106 0
1 41 98 0
1 -41 -99 0
1 -41 -42 0
1 41 -95 0
1 41 -107 0
1 41 101 0
1 -41 91 0
1 42 -106 0
1 42 -98 0
1 -42 108 0
1 42 -95 0
1 42 -101 0
1 42 -102 0
1 -42 91 0
1 44 -109 0
1 -44 -98 0
1 -44 -96 0
1 44 99 0
1 -44 107 0
1 44 28 0
1 -96 -106 0
1 96 110 0
1 -96 -109 0
1 -96 111 0
1 -96 107 0
1 -96 112 0
1 96 -44 0
1 -96 100 0
1 96 -91 0
1 52 -113 0
1 -52 53 0
1 -52 114 0
1 52 47 0
1 -53 113 0
1 53 -115 0
1 53 -116 0
1 53 -117 0
1 53 114 0
1 -53 52 0
1 -118 -115 0
1 -118 -119 0
1 -118 120 0
1 -118 10 0
1 -118 -121 0
1 60 113 0
1 -60 119 0
1 60 -122 0
1 -60 -117 0
1 -60 121 0
1 -60 -118 0
1 114 64 0
1 114 -65 0
1 -114 -60 0
1 114 53 0
1 -114 -123 0
1 114 -68 0
1 -114 -118 0
1 115 114 0
1 115 124 0
1 -115 -64 0
1 115 65 0
1 115 60 0
1 115 -53 0
1 -115 66 0
1 -115 -68 0
1 115 -52 0
1 -117 125 0
1 117 113 0
1 -117 -124 0
1 -117 126 0
1 117 -60 0
1 -117 53 0
1 117 127 0
1 117 -128 0
1 -117 -52 0
1 -113 -124 0
1 113 -129 0
1 113 -53 0
1 113 52 0
1 68 -115 0
1 68 -65 0
1 68 -130 0
1 68 119 0
1 -68 50 0
1 -68 114 0
1 68 22 0
1 -68 120 0
1 -65 48 0
1 -65 -115 0
1 65 -69 0
1 65 -130 0
1 -65 -129 0
1 -65 119 0
1 -65 -68 0
1 66 -48 0
1 -66 -64 0
1 66 115 0
1 -66 130 0
1 -66 -119 0
1 -66 131 0
1 66 -50 0
1 -66 -114 0
1 -66 127 0
1 -66 121 0
1 -66 -132 0
1 -64 -133 0
1 -64 -48 0
1 64 -20 0
1 -64 -119 0
1 64 131 0
1 64 50 0
1 64 -120 0
1 64 121 0
1 121 78 0
1 121 -64 0
1 -121 -65 0
1 -121 -60 0
1 121 -119 0
1 121 -134 0
1 121 -61 0
1 -121 66 0
1 -121 -118 0
1 -121 135 0
1 119 -136 0
1 -119 -78 0
1 119 63 0
1 -119 64 0
1 119 -65 0
1 119 -137 0
1 119 -134 0
1 119 -79 0
1 -119 -66 0
1 119 -118 0
1 -120 -136 0
1 -120 -138 0
1 120 124 0
1 -120 -64 0
1 -120 -65 0
1 -120 134 0
1 120 -139 0
1 120 -123 0
1 -120 66 0
1 120 -118 0
1 -130 -136 0
1 130 -124 0
1 130 -64 0
1 -130 65 0
1 130 140 0
1 130 60 0
1 -130 -134 0
1 -130 -139 0
1 130 68 0
1 -61 -133 0
1 -61 -48 0
1 -61 119 0
1 -61 -141 0
1 61 51 0
1 -61 -57 0
1 63 48 0
1 63 13 0
1 -63 -59 0
1 -63 54 0
1 -63 -141 0
1 63 131 0
1 -63 51 0
1 63 61 0
1 63 132 0
1 -79 133 0
1 -79 62 0
1 -79 142 0
1 -79 -141 0
1 -79 131 0
1 79 67 0
1 -79 81 0
1 79 -139 0
1 79 -132 0
1 -78 62 0
1 78 -138 0
1 -78 54 0
1 -78 119 0
1 -78 -141 0
1 -78 -79 0
1 78 -143 0
1 -78 121 0
1 -78 -132 0
1 -133 -74 0
1 133 -144 0
1 133 78 0
1 -133 63 0
1 133 -64 0
1 -133 -145 0
1 133 -87 0
1 133 -61 0
1 133 66 0
1 133 88 0
1 -131 -63 0
1 -131 -87 0
1 131 -146 0
1 -131 76 0
1 131 79 0
1 -131 61 0
1 131 -66 0
1 132 136 0
1 132 -147 0
1 132 64 0
1 132 -145 0
1 -132 79 0
1 -132 -66 0
1 132 148 0
1 141 78 0
1 141 63 0
1 -141 -64 0
1 141 -149 0
1 141 150 0
1 141 134 0
1 141 61 0
1 -141 66 0
1 -141 151 0
1 -141 -132 0
1 141 148 0
1 76 133 0
1 -76 -142 0
1 -76 -54 0
1 -76 55 0
1 -76 -70 0
1 -76 -134 0
1 -76 67 0
1 -76 143 0
1 -76 -57 0
1 -74 -133 0
1 74 -62 0
1 74 142 0
1 -74 -54 0
1 -74 -76 0
1 -74 -143 0
1 74 -57 0
1 -74 58 0
1 -74 -72 0
1 -74 36 0
1 -87 133 0
1 -87 62 0
1 87 -152 0
1 -87 -153 0
1 -87 43 0
1 -87 -131 0
1 87 -80 0
1 87 -77 0
1 88 142 0
1 -88 153 0
1 88 70 0
1 88 -131 0
1 -88 67 0
1 88 143 0
1 88 -80 0
1 88 77 0
1 88 72 0
1 142 -78 0
1 -142 -59 0
1 -142 154 0
1 142 155 0
1 -142 97 0
1 142 76 0
1 -142 143 0
1 142 -94 0
1 -143 74 0
1 143 -78 0
1 -143 142 0
1 143 86 0
1 -143 -76 0
1 143 51 0
1 143 -79 0
1 143 -156 0
1 143 -94 0
1 143 -88 0
1 -62 -74 0
1 -62 -157 0
1 62 87 0
1 62 -76 0
1 -62 67 0
1 -62 158 0
1 -62 151 0
1 67 -74 0
1 67 62 0
1 -67 -145 0
1 67 87 0
1 67 -76 0
1 67 79 0
1 -67 158 0
1 -67 -151 0
1 67 88 0
1 86 -152 0
1 86 -153 0
1 -86 40 0
1 -86 82 0
1 -86 -80 0
1 86 72 0
1 -86 73 0
1 -86 -85 0
1 86 -23 0
1 -85 152 0
1 -85 153 0
1 85 70 0
1 -85 86 0
1 -85 -82 0
1 -85 143 0
1 -85 80 0
1 85 -77 0
1 85 -46 0
1 85 -151 0
1 85 23 0
1 97 -142 0
1 97 -159 0
1 -97 -95 0
1 -97 -160 0
1 -97 157 0
1 -97 83 0
1 97 82 0
1 -97 -143 0
1 -97 80 0
1 97 77 0
1 -97 -94 0
1 97 -84 0
1 97 -23 0
1 94 -142 0
1 94 -153 0
1 -94 97 0
1 94 160 0
1 -94 83 0
1 94 82 0
1 -94 -143 0
1 94 -80 0
1 -94 77 0
1 -94 91 0
1 -94 -161 0
1 153 77 0
1 -153 -105 0
1 153 -162 0
1 -153 -97 0
1 153 87 0
1 -153 -163 0
1 -153 89 0
1 -153 -94 0
1 -153 -85 0
1 -153 -88 0
1 -77 164 0
1 77 92 0
1 -77 -153 0
1 -77 97 0
1 77 -87 0
1 77 -163 0
1 77 -104 0
1 77 165 0
1 -77 94 0
1 -77 85 0
1 77 88 0
1 152 164 0
1 152 54 0
1 -152 -166 0
1 -152 -167 0
1 -152 -155 0
1 152 86 0
1 152 163 0
1 -152 80 0
1 152 -168 0
1 152 -158 0
1 152 -85 0
1 -80 -164 0
1 -80 -169 0
1 80 155 0
1 -80 97 0
1 -80 86 0
1 80 87 0
1 -80 -163 0
1 80 57 0
1 -80 -168 0
1 80 -158 0
1 -80 94 0
1 92 77 0
1 -92 -99 0
1 92 155 0
1 92 -160 0
1 92 82 0
1 92 15 0
1 -92 37 0
1 -92 -89 0
1 92 -159 0
1 92 -84 0
1 89 38 0
1 89 -92 0
1 89 160 0
1 -89 82 0
1 -89 158 0
1 -89 23 0
1 105 38 0
1 105 98 0
1 -105 -153 0
1 105 83 0
1 105 -93 0
1 105 170 0
1 -105 -37 0
1 105 -84 0
1 105 171 0
1 104 90 0
1 104 38 0
1 -104 153 0
1 -104 160 0
1 104 83 0
1 104 93 0
1 -104 170 0
1 -104 -37 0
1 104 101 0
1 -104 -77 0
1 -104 -159 0
1 83 -172 0
1 83 -110 0
1 83 92 0
1 83 -97 0
1 83 100 0
1 83 89 0
1 -83 -84 0
1 84 -172 0
1 -84 105 0
1 -84 -92 0
1 84 97 0
1 84 173 0
1 84 -100 0
1 -84 -94 0
1 -84 -73 0
1 -84 -174 0
1 -160 -175 0
1 160 105 0
1 -160 70 0
1 160 -97 0
1 -160 176 0
1 -160 173 0
1 -160 -104 0
1 -160 -94 0
1 159 -172 0
1 -159 175 0
1 159 -164 0
1 -159 -105 0
1 159 160 0
1 159 -163 0
1 159 72 0
1 159 -94 0
1 -159 177 0
1 -109 -38 0
1 -109 -35 0
1 109 -164 0
1 -109 -96 0
1 -109 -83 0
1 109 170 0
1 -109 33 0
1 -109 84 0
1 -100 -90 0
1 -100 38 0
1 100 -93 0
1 100 170 0
1 100 -163 0
1 100 -84 0
1 -110 90 0
1 110 175 0
1 110 -178 0
1 110 -83 0
1 -110 -93 0
1 110 -112 0
1 -110 103 0
1 -110 44 0
1 -110 84 0
1 -112 -110 0
1 112 179 0
1 -112 178 0
1 -112 96 0
1 -112 93 0
1 112 170 0
1 112 -103 0
1 -112 44 0
1 112 171 0
1 -170 -106 0
1 -170 109 0
1 -170 -105 0
1 170 -180 0
1 -170 15 0
1 -170 100 0
1 170 -181 0
1 -170 182 0
1 90 -106 0
1 90 -19 0
1 -90 -110 0
1 90 -109 0
1 -90 -105 0
1 -90 -180 0
1 90 112 0
1 -90 100 0
1 -90 -104 0
1 90 -181 0
1 93 172 0
1 -93 109 0
1 93 105 0
1 -93 183 0
1 93 173 0
1 -93 184 0
1 -93 -100 0
1 93 181 0
1 -93 -171 0
1 -171 185 0
1 171 172 0
1 171 110 0
1 -171 -109 0
1 171 -105 0
1 -171 183 0
1 171 173 0
1 171 112 0
1 171 -93 0
1 -171 -104 0
1 -171 181 0
1 171 -23 0
1 -171 -186 0
1 -106 -179 0
1 -106 96 0
1 106 107 0
1 -106 41 0
1 -107 106 0
1 107 90 0
1 -107 -178 0
1 -107 96 0
1 107 -173 0
1 -107 170 0
1 -107 103 0
1 -107 -187 0
1 -107 -44 0
1 -107 -41 0
1 -182 -179 0
1 -182 178 0
1 -182 -111 0
1 -182 188 0
1 -182 103 0
1 -188 179 0
1 -188 178 0
1 -188 -111 0
1 188 -183 0
1 -188 -103 0
1 -188 -187 0
1 188 189 0
1 -188 -190 0
1 -187 -191 0
1 187 188 0
1 187 107 0
1 187 -112 0
1 187 33 0
1 187 -192 0
1 -187 -193 0
1 187 -182 0
1 178 -110 0
1 178 194 0
1 178 -191 0
1 178 195 0
1 -178 107 0
1 -178 187 0
1 178 -193 0
1 -178 196 0
1 178 -182 0
1 103 110 0
1 -103 -179 0
1 103 -197 0
1 103 188 0
1 -103 107 0
1 -103 112 0
1 103 -37 0
1 -103 -198 0
1 103 193 0
1 103 -181 0
1 -103 182 0
1 179 -106 0
1 -179 110 0
1 179 38 0
1 -179 199 0
1 179 -197 0
1 -179 107 0
1 -179 -103 0
1 -179 -193 0
1 -179 200 0
1 -201 -178 0
1 201 111 0
1 201 -195 0
1 201 187 0
1 201 -190 0
1 195 108 0
1 195 -180 0
1 -195 189 0
1 -195 -201 0
1 196 111 0
1 -196 -108 0
1 -196 187 0
1 -196 -190 0
1 -191 178 0
1 191 -111 0
1 191 -108 0
1 -191 -197 0
1 -191 -196 0
1 190 202 0
1 190 191 0
1 -190 -108 0
1 190 -195 0
1 190 203 0
1 190 -196 0
1 190 204 0
1 190 201 0
1 190 -182 0
1 108 -202 0
1 108 -42 0
1 -108 191 0
1 -108 188 0
1 108 -203 0
1 -189 -202 0
1 189 194 0
1 189 195 0
1 -189 188 0
1 189 203 0
1 -189 -44 0
1 189 205 0
1 189 -196 0
1 189 182 0
1 111 -202 0
1 111 206 0
1 -111 -96 0
1 -111 -194 0
1 -111 207 0
1 -111 191 0
1 111 195 0
1 -111 188 0
1 111 -203 0
1 111 208 0
1 -111 189 0
1 111 193 0
1 -111 -182 0
1 -209 -210 0
1 -209 -211 0
1 209 116 0
1 209 212 0
1 209 -52 0
1 116 212 0
1 116 -209 0
1 -213 -210 0
1 -213 -122 0
1 -213 211 0
1 213 -214 0
1 213 212 0
1 -213 118 0
1 -213 -215 0
1 213 -216 0
1 -122 215 0
1 -122 -210 0
1 -122 211 0
1 122 -217 0
1 122 214 0
1 122 -218 0
1 122 213 0
1 211 -126 0
1 -211 -122 0
1 -211 -127 0
1 -211 -218 0
1 211 128 0
1 -211 213 0
1 -218 126 0
1 218 129 0
1 218 -116 0
1 -218 127 0
1 218 -213 0
1 210 122 0
1 -210 212 0
1 -210 213 0
1 212 -116 0
1 -212 219 0
1 -212 209 0
1 128 129 0
1 128 -211 0
1 128 217 0
1 -128 -214 0
1 -128 -218 0
1 -128 -215 0
1 -128 216 0
1 129 65 0
1 129 211 0
1 129 -217 0
1 -129 214 0
1 -129 -215 0
1 127 -220 0
1 127 113 0
1 127 211 0
1 127 -217 0
1 127 221 0
1 127 66 0
1 -127 216 0
1 -126 64 0
1 -126 -214 0
1 -126 222 0
1 126 -117 0
1 -126 -218 0
1 214 124 0
1 214 -122 0
1 214 223 0
1 -214 -224 0
1 214 -123 0
1 -216 -225 0
1 216 126 0
1 -216 -129 0
1 -216 122 0
1 216 224 0
1 216 -139 0
1 216 123 0
1 -216 -127 0
1 216 213 0
1 -217 -215 0
1 -217 126 0
1 -217 -122 0
1 217 -224 0
1 -215 126 0
1 -215 129 0
1 215 -122 0
1 215 128 0
1 -215 -213 0
1 123 226 0
1 123 124 0
1 -123 -115 0
1 -123 -130 0
1 -123 -214 0
1 123 -222 0
1 -123 -61 0
1 123 -216 0
1 124 220 0
1 124 115 0
1 124 130 0
1 124 221 0
1 124 117 0
1 -124 -114 0
1 -124 120 0
1 139 226 0
1 139 -220 0
1 -139 130 0
1 -139 214 0
1 -139 222 0
1 -139 79 0
1 139 120 0
1 139 216 0
1 138 78 0
1 138 -227 0
1 138 130 0
1 -138 -214 0
1 138 -222 0
1 -138 221 0
1 138 120 0
1 -138 216 0
1 221 220 0
1 -221 138 0
1 -221 -126 0
1 -221 228 0
1 221 134 0
1 221 229 0
1 221 -123 0
1 221 127 0
1 221 230 0
1 220 124 0
1 220 -228 0
1 220 -150 0
1 220 -134 0
1 -220 -221 0
1 -220 127 0
1 220 230 0
1 -220 148 0
1 222 231 0
1 222 232 0
1 -222 124 0
1 222 -126 0
1 222 -233 0
1 -222 -234 0
1 222 139 0
1 222 123 0
1 222 -127 0
1 -222 230 0
1 -226 232 0
1 -226 -138 0
1 226 -124 0
1 -226 126 0
1 -226 -228 0
1 -226 -233 0
1 -226 -222 0
1 226 -139 0
1 226 -123 0
1 226 -230 0
1 134 -136 0
1 134 -220 0
1 134 235 0
1 134 130 0
1 -134 -119 0
1 -134 -224 0
1 134 221 0
1 134 -236 0
1 -134 121 0
1 -134 -132 0
1 136 -74 0
1 136 -232 0
1 136 -220 0
1 136 -227 0
1 136 130 0
1 136 -221 0
1 136 -236 0
1 -136 -120 0
1 -150 220 0
1 150 -227 0
1 -150 -140 0
1 150 141 0
1 150 -87 0
1 150 233 0
1 150 125 0
1 -150 -236 0
1 150 237 0
1 -150 135 0
1 150 132 0
1 148 231 0
1 -148 220 0
1 -148 -227 0
1 -148 140 0
1 -148 137 0
1 148 141 0
1 148 -221 0
1 148 -125 0
1 -148 -236 0
1 -148 237 0
1 -148 135 0
1 148 132 0
1 -236 -136 0
1 -236 157 0
1 236 -145 0
1 -236 134 0
1 -236 139 0
1 236 114 0
1 -236 -161 0
1 -236 151 0
1 -227 -136 0
1 227 -238 0
1 227 -239 0
1 227 -150 0
1 227 134 0
1 227 -139 0
1 -227 236 0
1 227 -240 0
1 227 -161 0
1 -227 148 0
1 125 -138 0
1 -125 -239 0
1 125 241 0
1 125 -150 0
1 125 134 0
1 -125 117 0
1 -125 242 0
1 -125 240 0
1 125 243 0
1 -125 -230 0
1 -235 -136 0
1 -235 138 0
1 235 244 0
1 235 -241 0
1 235 -228 0
1 -235 139 0
1 235 125 0
1 -235 -240 0
1 235 -243 0
1 235 -230 0
1 -235 -148 0
1 -145 -62 0
1 -145 -137 0
1 -145 86 0
1 145 141 0
1 -145 228 0
1 145 -67 0
1 -145 135 0
1 145 -132 0
1 -151 133 0
1 -151 227 0
1 151 137 0
1 -151 145 0
1 -151 131 0
1 151 67 0
1 151 -237 0
1 -151 -135 0
1 -151 230 0
1 157 -144 0
1 -157 -62 0
1 -157 -140 0
1 157 97 0
1 157 -241 0
1 -157 -149 0
1 157 146 0
1 157 67 0
1 -157 -237 0
1 157 161 0
1 -157 -135 0
1 157 -147 0
1 -161 -144 0
1 -161 -62 0
1 161 -227 0
1 -161 -157 0
1 161 137 0
1 161 149 0
1 -161 94 0
1 161 -237 0
1 -161 -135 0
1 161 -147 0
1 -135 155 0
1 135 157 0
1 135 -137 0
1 135 145 0
1 135 150 0
1 135 -158 0
1 137 -245 0
1 -137 -155 0
1 137 -119 0
1 -137 145 0
1 -137 246 0
1 137 -158 0
1 137 -151 0
1 137 -148 0
1 237 -247 0
1 237 140 0
1 237 157 0
1 237 145 0
1 -237 120 0
1 -237 -150 0
1 237 -246 0
1 237 240 0
1 -237 -161 0
1 237 148 0
1 -140 245 0
1 140 157 0
1 -140 248 0
1 -140 -145 0
1 -140 237 0
1 140 -246 0
1 140 -249 0
1 -140 -240 0
1 -140 -161 0
1 -140 148 0
1 155 144 0
1 -155 -152 0
1 155 -92 0
1 155 -239 0
1 155 -137 0
1 155 -149 0
1 155 -146 0
1 155 -67 0
1 155 -143 0
1 155 -80 0
1 -155 158 0
1 -155 -135 0
1 -155 -147 0
1 -158 144 0
1 158 -62 0
1 158 152 0
1 -158 -155 0
1 -158 149 0
1 158 -146 0
1 -158 80 0
1 -158 -240 0
1 -158 -135 0
1 -158 147 0
1 166 144 0
1 -166 -250 0
1 -166 -154 0
1 166 152 0
1 -166 247 0
1 -166 -137 0
1 -166 149 0
1 166 -156 0
1 166 80 0
1 -166 -168 0
1 -166 -135 0
1 168 250 0
1 -168 166 0
1 -168 -149 0
1 -168 -146 0
1 -168 251 0
1 -168 -104 0
1 -168 -135 0
1 144 -133 0
1 -144 -252 0
1 -144 175 0
1 -144 -253 0
1 144 -164 0
1 144 166 0
1 -144 -157 0
1 -144 -146 0
1 -144 -254 0
1 -144 168 0
1 -144 -158 0
1 -146 -144 0
1 -146 -252 0
1 146 164 0
1 -146 166 0
1 -146 254 0
1 -146 255 0
1 -146 256 0
1 -146 -168 0
1 -146 -161 0
1 147 -257 0
1 -147 -258 0
1 -147 166 0
1 147 -149 0
1 147 -254 0
1 147 259 0
1 147 246 0
1 -147 168 0
1 147 -161 0
1 149 252 0
1 149 258 0
1 149 245 0
1 -149 -155 0
1 -149 -141 0
1 149 259 0
1 -149 246 0
1 149 168 0
1 149 -158 0
1 -149 -147 0
1 164 144 0
1 -164 109 0
1 164 -245 0
1 -164 -154 0
1 164 153 0
1 -164 -146 0
1 -164 -251 0
1 164 -77 0
1 -163 144 0
1 163 250 0
1 -163 -164 0
1 163 -152 0
1 -163 153 0
1 -163 -160 0
1 163 146 0
1 -163 100 0
1 -163 251 0
1 -163 156 0
1 163 77 0
1 175 144 0
1 -175 110 0
1 -175 -258 0
1 -175 -250 0
1 -175 154 0
1 -175 162 0
1 175 156 0
1 -175 -169 0
1 175 165 0
1 255 144 0
1 -255 -250 0
1 255 -167 0
1 255 160 0
1 -255 146 0
1 -255 156 0
1 -255 165 0
1 -255 159 0
1 -154 172 0
1 -154 -175 0
1 -154 164 0
1 -154 -142 0
1 154 -260 0
1 -154 -166 0
1 -154 -261 0
1 -154 183 0
1 154 -173 0
1 154 255 0
1 -154 -163 0
1 -154 156 0
1 154 168 0
1 154 -186 0
1 156 -175 0
1 156 -164 0
1 156 154 0
1 156 166 0
1 -156 183 0
1 156 163 0
1 156 143 0
1 156 262 0
1 -156 -186 0
1 -250 -252 0
1 -250 -263 0
1 250 -166 0
1 -250 -261 0
1 -250 254 0
1 250 251 0
1 250 -163 0
1 -251 -264 0
1 -251 252 0
1 251 -175 0
1 251 -250 0
1 -251 -164 0
1 -251 261 0
1 -251 -265 0
1 -251 -255 0
1 251 -67 0
1 251 163 0
1 -172 160 0
1 -172 -93 0
1 172 169 0
1 172 -84 0
1 -173 172 0
1 173 -162 0
1 173 83 0
1 173 107 0
1 -173 93 0
1 173 254 0
1 -173 -156 0
1 173 -169 0
1 -173 -165 0
1 -173 -159 0
1 173 -84 0
1 173 171 0
1 186 -154 0
1 186 -167 0
1 -186 162 0
1 -186 176 0
1 186 183 0
1 186 93 0
1 186 -169 0
1 -186 165 0
1 186 177 0
1 -186 -174 0
1 183 -154 0
1 183 -167 0
1 -183 -186 0
1 183 176 0
1 -183 -188 0
1 183 -266 0
1 183 93 0
1 183 -156 0
1 -183 169 0
1 -183 177 0
1 183 -171 0
1 -162 -175 0
1 -162 165 0
1 162 267 0
1 162 153 0
1 -162 -268 0
1 -162 -173 0
1 -162 -255 0
1 -162 -200 0
1 165 197 0
1 165 -162 0
1 -165 -180 0
1 -165 77 0
1 165 -269 0
1 -165 -181 0
1 165 -186 0
1 167 172 0
1 -167 267 0
1 -167 270 0
1 -167 -261 0
1 167 183 0
1 -167 -169 0
1 167 271 0
1 167 272 0
1 169 -172 0
1 -169 -267 0
1 -169 261 0
1 169 -80 0
1 -169 273 0
1 169 186 0
1 -181 -176 0
1 -181 -266 0
1 181 -170 0
1 181 -103 0
1 181 -165 0
1 181 -201 0
1 -181 -171 0
1 180 162 0
1 180 -195 0
1 180 176 0
1 -180 266 0
1 180 93 0
1 -180 170 0
1 -180 103 0
1 -180 174 0
1 -180 177 0
1 180 181 0
1 -180 171 0
1 200 185 0
1 -200 197 0
1 -200 -162 0
1 200 266 0
1 200 -184 0
1 -200 -274 0
1 200 103 0
1 200 -165 0
1 200 -196 0
1 200 177 0
1 200 272 0
1 -197 -185 0
1 -197 -275 0
1 197 -179 0
1 -197 -176 0
1 197 -184 0
1 197 -274 0
1 -197 -103 0
1 197 -165 0
1 -197 -200 0
1 266 206 0
1 -266 197 0
1 266 -83 0
1 -266 -276 0
1 266 277 0
1 -266 -208 0
1 -266 -174 0
1 -266 181 0
1 174 194 0
1 -174 197 0
1 -174 -180 0
1 -174 -266 0
1 -174 277 0
1 174 -208 0
1 174 -193 0
1 -174 -181 0
1 -176 267 0
1 -176 197 0
1 -176 160 0
1 176 180 0
1 176 183 0
1 -176 -177 0
1 -176 277 0
1 -176 -186 0
1 177 -278 0
1 177 267 0
1 -177 -197 0
1 -177 -176 0
1 -177 -183 0
1 -177 -279 0
1 177 -159 0
1 -177 200 0
1 177 181 0
1 193 179 0
1 193 -111 0
1 -193 -184 0
1 -193 274 0
1 -193 189 0
1 -194 -178 0
1 -194 -111 0
1 194 267 0
1 194 -266 0
1 194 -274 0
1 -194 103 0
1 194 -187 0
1 208 -185 0
1 -208 206 0
1 208 -280 0
1 208 -111 0
1 -208 -279 0
1 208 184 0
1 208 274 0
1 -208 -198 0
1 208 -192 0
1 208 189 0
1 208 174 0
1 206 185 0
1 -206 -111 0
1 206 184 0
1 -206 -198 0
1 206 192 0
1 -206 -189 0
1 206 174 0
1 -274 -281 0
1 -274 275 0
1 -274 -202 0
1 274 206 0
1 274 -197 0
1 274 282 0
1 274 -283 0
1 274 170 0
1 274 -203 0
1 274 -208 0
1 275 -284 0
1 275 281 0
1 -275 -90 0
1 275 194 0
1 275 -197 0
1 -275 282 0
1 -275 -283 0
1 -275 274 0
1 275 203 0
1 -184 185 0
1 -184 278 0
1 -184 -197 0
1 184 93 0
1 -184 -282 0
1 184 285 0
1 184 -208 0
1 -184 -200 0
1 185 -286 0
1 -185 206 0
1 185 -282 0
1 -185 184 0
1 -185 -277 0
1 -185 208 0
1 185 171 0
1 -203 202 0
1 203 -199 0
1 203 -111 0
1 203 -108 0
1 -203 274 0
1 203 -277 0
1 203 -198 0
1 -203 189 0
1 -203 190 0
1 202 275 0
1 -202 -278 0
1 202 -199 0
1 202 -111 0
1 202 -203 0
1 202 198 0
1 -202 192 0
1 -202 189 0
1 -202 -190 0
1 -283 281 0
1 283 -275 0
1 283 199 0
1 283 -207 0
1 283 274 0
1 283 -205 0
1 -281 280 0
1 -281 207 0
1 -281 274 0
1 -281 -192 0
1 281 204 0
1 192 202 0
1 -192 206 0
1 -192 -280 0
1 -192 287 0
1 192 -283 0
1 192 203 0
1 -192 -288 0
1 -280 -206 0
1 280 -287 0
1 280 -289 0
1 198 -281 0
1 198 202 0
1 198 199 0
1 198 290 0
1 -198 282 0
1 198 -283 0
1 198 -203 0
1 -198 103 0
1 -199 202 0
1 -199 179 0
1 -199 -290 0
1 -199 283 0
1 199 -203 0
1 199 198 0
1 -287 280 0
1 -287 291 0
1 -287 -288 0
1 -288 284 0
1 288 287 0
1 -288 192 0
1 288 -204 0
1 292 -290 0
1 292 -192 0
1 292 -204 0
1 292 289 0
1 289 207 0
1 -289 292 0
1 -289 -192 0
1 -289 205 0
1 289 204 0
1 204 292 0
1 -204 -287 0
1 -204 -190 0
1 204 288 0
1 -291 281 0
1 -291 108 0
1 291 -204 0
1 291 289 0
1 -291 288 0
1 205 281 0
1 205 -207 0
1 -205 -287 0
1 -205 -283 0
1 205 -189 0
1 205 -289 0
1 -205 -288 0
1 207 292 0
1 -207 -287 0
1 -207 -205 0
1 207 289 0
1 207 288 0
1 224 293 0
1 224 217 0
1 224 -219 0
1 -224 294 0
1 224 215 0
1 232 -136 0
1 -232 293 0
1 -232 214 0
1 -232 224 0
1 232 219 0
1 -232 -294 0
1 232 215 0
1 232 216 0
1 -233 -231 0
1 -233 226 0
1 -233 295 0
1 -233 296 0
1 -233 150 0
1 233 222 0
1 233 219 0
1 -233 294 0
1 -231 225 0
1 -231 -226 0
1 -231 -293 0
1 -231 296 0
1 231 233 0
1 -231 223 0
1 -231 219 0
1 -231 294 0
1 -231 297 0
1 -231 -148 0
1 295 232 0
1 -295 233 0
1 295 224 0
1 -295 243 0
1 -294 -231 0
1 -294 -232 0
1 294 -241 0
1 294 295 0
1 294 233 0
1 294 243 0
1 -293 -224 0
1 -293 -219 0
1 219 -231 0
1 219 -232 0
1 -219 -293 0
1 219 -298 0
1 -219 -233 0
1 -219 -212 0
1 -228 225 0
1 228 226 0
1 228 220 0
1 228 235 0
1 228 297 0
1 228 295 0
1 -228 -296 0
1 228 -222 0
1 228 -221 0
1 228 -125 0
1 228 -294 0
1 230 225 0
1 230 -226 0
1 -230 220 0
1 230 295 0
1 -230 -228 0
1 230 -222 0
1 230 125 0
1 230 -151 0
1 -241 -299 0
1 241 157 0
1 -241 295 0
1 241 -223 0
1 241 -234 0
1 -241 243 0
1 241 -297 0
1 -241 294 0
1 243 -225 0
1 -243 -235 0
1 243 -241 0
1 243 -295 0
1 243 296 0
1 243 -223 0
1 243 229 0
1 -243 -161 0
1 243 294 0
1 243 -297 0
1 -223 231 0
1 -223 225 0
1 -223 -300 0
1 223 -247 0
1 -223 -239 0
1 223 -241 0
1 223 -214 0
1 -223 -240 0
1 223 -243 0
1 -223 -230 0
1 -225 231 0
1 -225 -301 0
1 -225 -300 0
1 -225 -228 0
1 -225 -233 0
1 225 -223 0
1 225 240 0
1 225 -216 0
1 296 300 0
1 296 297 0
1 296 241 0
1 296 217 0
1 296 -228 0
1 -296 233 0
1 296 302 0
1 -296 243 0
1 296 -230 0
1 -297 -228 0
1 -297 -230 0
1 -297 303 0
1 239 -225 0
1 239 -227 0
1 -239 -140 0
1 -239 -234 0
1 239 -236 0
1 -239 240 0
1 -239 -237 0
1 240 -299 0
1 -240 -304 0
1 240 -235 0
1 -240 -227 0
1 240 140 0
1 240 -239 0
1 -240 236 0
1 240 223 0
1 240 -237 0
1 240 -234 0
1 240 158 0
1 247 225 0
1 247 299 0
1 -247 166 0
1 -247 -223 0
1 -247 -234 0
1 247 229 0
1 247 305 0
1 247 237 0
1 249 225 0
1 -249 -304 0
1 -249 244 0
1 -249 223 0
1 249 229 0
1 249 168 0
1 -249 305 0
1 249 -237 0
1 229 306 0
1 -229 304 0
1 229 239 0
1 -229 -241 0
1 229 -307 0
1 229 259 0
1 229 221 0
1 229 308 0
1 229 240 0
1 -229 243 0
1 304 -306 0
1 304 -258 0
1 304 245 0
1 -304 309 0
1 -304 -239 0
1 -304 -241 0
1 304 307 0
1 304 -259 0
1 304 -246 0
1 304 -249 0
1 -304 -240 0
1 -304 -243 0
1 -234 -306 0
1 234 310 0
1 -234 300 0
1 -234 -239 0
1 -234 -241 0
1 234 311 0
1 -299 -312 0
1 299 -247 0
1 -299 -239 0
1 299 -241 0
1 299 307 0
1 -299 -234 0
1 299 313 0
1 -299 302 0
1 -299 -249 0
1 -245 164 0
1 -245 238 0
1 245 140 0
1 -245 149 0
1 -245 -229 0
1 -245 242 0
1 -245 -237 0
1 -245 -135 0
1 245 -147 0
1 -246 -245 0
1 -246 -244 0
1 -246 -137 0
1 -246 149 0
1 -246 242 0
1 246 -305 0
1 246 237 0
1 246 -147 0
1 258 -175 0
1 258 -304 0
1 -258 -310 0
1 258 -244 0
1 258 259 0
1 -258 242 0
1 258 305 0
1 258 314 0
1 -258 -315 0
1 -259 -258 0
1 -259 238 0
1 -259 316 0
1 259 -149 0
1 259 255 0
1 -259 313 0
1 259 -305 0
1 259 -315 0
1 259 -147 0
1 305 -252 0
1 305 258 0
1 -305 238 0
1 305 -265 0
1 305 259 0
1 305 -246 0
1 305 249 0
1 238 -264 0
1 238 -252 0
1 238 245 0
1 238 -227 0
1 -238 -247 0
1 -238 317 0
1 238 318 0
1 -238 -265 0
1 -238 -254 0
1 -238 -305 0
1 -242 319 0
1 242 306 0
1 -242 247 0
1 242 320 0
1 242 307 0
1 242 259 0
1 -242 -246 0
1 242 -249 0
1 -242 321 0
1 -244 258 0
1 244 -245 0
1 244 242 0
1 244 318 0
1 244 307 0
1 -252 172 0
1 -252 144 0
1 252 -250 0
1 -252 238 0
1 252 -316 0
1 252 -149 0
1 252 305 0
1 252 -315 0
1 254 144 0
1 254 250 0
1 254 -248 0
1 -254 -316 0
1 254 -173 0
1 -254 251 0
1 254 -305 0
1 254 315 0
1 254 147 0
1 264 -257 0
1 -264 -319 0
1 -264 -238 0
1 -264 -248 0
1 264 -322 0
1 264 256 0
1 264 -251 0
1 264 305 0
1 264 -314 0
1 264 186 0
1 -265 -322 0
1 265 -256 0
1 265 -305 0
1 265 -314 0
1 -315 264 0
1 -315 -258 0
1 -315 316 0
1 -315 -265 0
1 -315 259 0
1 -315 -272 0
1 315 135 0
1 315 -323 0
1 316 -264 0
1 -316 258 0
1 316 -324 0
1 -316 270 0
1 -316 -261 0
1 316 325 0
1 -316 -265 0
1 316 -254 0
1 -316 -259 0
1 316 272 0
1 -316 315 0
1 -314 -264 0
1 -314 252 0
1 314 -324 0
1 -314 248 0
1 314 318 0
1 -314 -254 0
1 -314 -259 0
1 314 -326 0
1 314 -327 0
1 248 264 0
1 248 -252 0
1 248 258 0
1 248 -324 0
1 248 140 0
1 248 -328 0
1 248 -329 0
1 -248 -318 0
1 -248 254 0
1 248 -259 0
1 248 -326 0
1 -248 -314 0
1 -248 321 0
1 -261 -253 0
1 -261 -154 0
1 -261 -180 0
1 -261 -316 0
1 -261 318 0
1 -261 256 0
1 -261 251 0
1 -261 156 0
1 -261 -169 0
1 -272 253 0
1 272 -263 0
1 -272 -260 0
1 272 316 0
1 -272 -322 0
1 -272 -256 0
1 272 330 0
1 272 262 0
1 -272 315 0
1 270 -257 0
1 -270 -167 0
1 270 197 0
1 -270 316 0
1 -270 -322 0
1 270 330 0
1 270 169 0
1 -270 -272 0
1 -253 331 0
1 253 267 0
1 -253 -265 0
1 256 332 0
1 256 -331 0
1 256 -270 0
1 -256 -261 0
1 -256 -265 0
1 -256 -146 0
1 -256 333 0
1 256 279 0
1 -256 -271 0
1 257 264 0
1 -257 -332 0
1 257 -334 0
1 257 324 0
1 257 -261 0
1 257 -335 0
1 257 -336 0
1 -257 -326 0
1 -257 272 0
1 257 -147 0
1 322 264 0
1 -322 -257 0
1 -322 -334 0
1 -322 261 0
1 322 149 0
1 322 -265 0
1 322 -335 0
1 322 -272 0
1 271 263 0
1 -271 -260 0
1 -271 -267 0
1 271 -162 0
1 -271 176 0
1 271 330 0
1 -271 169 0
1 271 165 0
1 271 326 0
1 -271 -177 0
1 -267 253 0
1 -267 -263 0
1 267 -194 0
1 267 -176 0
1 -267 330 0
1 267 -262 0
1 -267 -271 0
1 279 -253 0
1 -279 -331 0
1 279 -260 0
1 -279 337 0
1 -279 -268 0
1 -279 -176 0
1 279 330 0
1 -279 208 0
1 279 -336 0
1 -279 -269 0
1 -279 177 0
1 -331 334 0
1 331 -260 0
1 331 -337 0
1 331 268 0
1 -331 -176 0
1 -331 -262 0
1 331 279 0
1 331 269 0
1 -331 177 0
1 260 338 0
1 -260 -278 0
1 -260 -267 0
1 -260 339 0
1 260 285 0
1 -260 279 0
1 -260 272 0
1 262 338 0
1 -262 278 0
1 -262 -260 0
1 -262 285 0
1 262 156 0
1 262 -279 0
1 -263 340 0
1 -263 250 0
1 263 332 0
1 263 -331 0
1 -263 267 0
1 263 -341 0
1 -263 335 0
1 -263 -271 0
1 263 272 0
1 -330 331 0
1 -330 -263 0
1 330 -267 0
1 -330 -270 0
1 -330 251 0
1 330 341 0
1 -330 -335 0
1 -330 -279 0
1 -330 271 0
1 -277 185 0
1 277 -278 0
1 277 260 0
1 277 176 0
1 277 -266 0
1 -277 -184 0
1 -277 -203 0
1 277 -335 0
1 277 -273 0
1 -277 -177 0
1 -277 -174 0
1 -278 185 0
1 278 202 0
1 278 -332 0
1 -278 -337 0
1 278 -268 0
1 -278 176 0
1 278 -277 0
1 278 262 0
1 278 273 0
1 278 269 0
1 -278 -174 0
1 285 286 0
1 -285 -260 0
1 285 -337 0
1 -285 -268 0
1 285 184 0
1 285 -283 0
1 285 -341 0
1 -285 342 0
1 286 185 0
1 286 337 0
1 286 268 0
1 286 -184 0
1 286 -285 0
1 286 273 0
1 -286 269 0
1 268 284 0
1 -268 -286 0
1 -268 -290 0
1 268 282 0
1 268 285 0
1 268 279 0
1 -268 -343 0
1 -269 -286 0
1 269 -278 0
1 -269 -268 0
1 -269 -285 0
1 269 277 0
1 -269 -279 0
1 337 338 0
1 337 -286 0
1 337 -278 0
1 -337 331 0
1 337 344 0
1 -337 339 0
1 -337 285 0
1 -337 277 0
1 -337 -279 0
1 337 273 0
1 -337 345 0
1 273 -286 0
1 273 -278 0
1 273 -331 0
1 -273 -337 0
1 273 277 0
1 -282 284 0
1 282 185 0
1 -282 -275 0
1 282 -346 0
1 -282 -276 0
1 -282 -198 0
1 282 -342 0
1 284 185 0
1 284 275 0
1 284 -199 0
1 -284 282 0
1 284 184 0
1 -284 274 0
1 284 -198 0
1 284 -269 0
1 -284 288 0
1 -290 346 0
1 290 -276 0
1 -290 -344 0
1 -290 -198 0
1 290 343 0
1 -343 -268 0
1 343 -346 0
1 343 -290 0
1 -343 -276 0
1 -343 289 0
1 -343 -345 0
1 276 -286 0
1 -276 290 0
1 -276 285 0
1 276 343 0
1 347 -284 0
1 347 -290 0
1 -347 282 0
1 347 285 0
1 -347 174 0
1 347 -343 0
1 -346 284 0
1 -346 -286 0
1 -346 -176 0
1 -342 286 0
1 -342 -282 0
1 -342 285 0
1 342 -177 0
1 -300 225 0
1 300 299 0
1 300 -348 0
1 300 -296 0
1 -300 223 0
1 300 -234 0
1 300 302 0
1 300 -298 0
1 -300 -297 0
1 -302 234 0
1 -302 246 0
1 302 297 0
1 310 -301 0
1 -310 -299 0
1 -310 -258 0
1 -310 349 0
1 310 -234 0
1 -310 313 0
1 310 350 0
1 310 -303 0
1 313 301 0
1 313 348 0
1 313 -349 0
1 313 -351 0
1 -313 -259 0
1 -313 -234 0
1 -313 298 0
1 -313 -350 0
1 -352 -306 0
1 -352 300 0
1 -352 320 0
1 352 353 0
1 -352 307 0
1 352 -302 0
1 352 350 0
1 350 -319 0
1 350 300 0
1 -350 -352 0
1 -350 320 0
1 350 313 0
1 -350 294 0
1 -350 -354 0
1 -348 300 0
1 348 -293 0
1 348 -355 0
1 348 302 0
1 -348 298 0
1 -298 300 0
1 298 348 0
1 298 313 0
1 298 219 0
1 306 -252 0
1 -306 -299 0
1 306 304 0
1 306 -352 0
1 -306 349 0
1 306 -307 0
1 306 -234 0
1 -306 -229 0
1 -306 -242 0
1 306 303 0
1 -307 -301 0
1 307 -299 0
1 307 -306 0
1 307 -304 0
1 307 -244 0
1 307 -234 0
1 307 -229 0
1 307 -242 0
1 307 -350 0
1 -307 -303 0
1 -319 301 0
1 -319 312 0
1 -319 309 0
1 -319 244 0
1 319 -352 0
1 319 -320 0
1 -319 -349 0
1 -319 -351 0
1 -319 242 0
1 319 350 0
1 320 -319 0
1 -320 244 0
1 -320 311 0
1 -320 -242 0
1 -351 -319 0
1 -351 -301 0
1 351 306 0
1 351 -310 0
1 351 356 0
1 -351 -328 0
1 -351 307 0
1 351 -357 0
1 351 358 0
1 -351 -327 0
1 351 -321 0
1 301 319 0
1 301 -359 0
1 -301 306 0
1 301 -310 0
1 -301 356 0
1 -301 -328 0
1 301 320 0
1 -301 -313 0
1 -301 358 0
1 301 327 0
1 301 321 0
1 -349 -310 0
1 349 -307 0
1 -349 -313 0
1 -349 -358 0
1 -303 -319 0
1 -303 306 0
1 -303 -356 0
1 -303 320 0
1 303 -313 0
1 -303 -358 0
1 -321 -301 0
1 321 312 0
1 -321 -309 0
1 321 -238 0
1 -321 -318 0
1 321 242 0
1 321 305 0
1 321 314 0
1 -318 -301 0
1 -318 -312 0
1 318 -309 0
1 318 -244 0
1 -318 248 0
1 318 -351 0
1 -318 -242 0
1 -318 -305 0
1 318 321 0
1 327 -360 0
1 -327 328 0
1 327 351 0
1 -327 -311 0
1 -327 -361 0
1 327 272 0
1 -328 312 0
1 -328 309 0
1 -328 360 0
1 328 -317 0
1 328 -270 0
1 328 -351 0
1 -328 311 0
1 328 308 0
1 -328 -361 0
1 328 314 0
1 -328 -327 0
1 -308 -319 0
1 308 -362 0
1 -308 324 0
1 -308 328 0
1 -308 -318 0
1 308 -320 0
1 -308 336 0
1 308 -326 0
1 308 327 0
1 -309 -319 0
1 -309 -304 0
1 -309 -362 0
1 -309 363 0
1 -309 324 0
1 -309 328 0
1 309 -318 0
1 -309 -308 0
1 309 -326 0
1 309 327 0
1 -309 -321 0
1 -311 -319 0
1 -311 362 0
1 311 320 0
1 -311 234 0
1 311 364 0
1 311 -365 0
1 311 -358 0
1 -311 321 0
1 -312 299 0
1 312 -362 0
1 -312 -366 0
1 312 356 0
1 312 -328 0
1 -312 -320 0
1 312 365 0
1 -312 327 0
1 -326 -257 0
1 -326 324 0
1 -326 317 0
1 -326 248 0
1 326 -316 0
1 -326 -322 0
1 -326 -361 0
1 -326 -308 0
1 326 271 0
1 326 -314 0
1 326 -315 0
1 324 257 0
1 324 -309 0
1 324 -267 0
1 -324 360 0
1 324 326 0
1 -324 314 0
1 -336 309 0
1 336 -360 0
1 336 367 0
1 336 -329 0
1 336 -322 0
1 336 -279 0
1 336 368 0
1 -336 323 0
1 -334 -257 0
1 -334 331 0
1 334 -366 0
1 334 -329 0
1 -334 336 0
1 334 369 0
1 334 -323 0
1 -361 370 0
1 -361 -340 0
1 -361 334 0
1 361 317 0
1 -361 305 0
1 -361 -371 0
1 361 341 0
1 -361 -336 0
1 361 -327 0
1 -317 -334 0
1 317 324 0
1 -317 -238 0
1 317 328 0
1 -317 341 0
1 -317 335 0
1 317 326 0
1 367 370 0
1 -367 -372 0
1 -367 242 0
1 367 324 0
1 367 360 0
1 367 328 0
1 -367 373 0
1 -367 -365 0
1 -367 -326 0
1 367 -327 0
1 360 -372 0
1 -360 362 0
1 360 334 0
1 360 -324 0
1 -360 328 0
1 -360 336 0
1 -360 -367 0
1 -360 -326 0
1 360 -327 0
1 335 -253 0
1 -335 263 0
1 -335 332 0
1 335 -317 0
1 335 322 0
1 -335 330 0
1 -335 365 0
1 -335 361 0
1 -335 -323 0
1 332 -278 0
1 332 317 0
1 332 329 0
1 -332 -335 0
1 332 361 0
1 332 -323 0
1 341 -374 0
1 -341 -340 0
1 -341 375 0
1 -341 -263 0
1 341 329 0
1 -341 325 0
1 -341 -376 0
1 -341 -373 0
1 -341 361 0
1 341 -323 0
1 -340 -374 0
1 340 329 0
1 340 -376 0
1 340 333 0
1 323 -338 0
1 -323 332 0
1 323 -339 0
1 -323 -335 0
1 -323 -315 0
1 -325 -340 0
1 -325 332 0
1 -325 -334 0
1 325 339 0
1 325 341 0
1 -325 -335 0
1 -325 -345 0
1 369 340 0
1 -369 -332 0
1 369 -377 0
1 369 341 0
1 -369 336 0
1 329 378 0
1 -329 370 0
1 329 340 0
1 -329 -334 0
1 329 248 0
1 -329 -371 0
1 -329 341 0
1 329 369 0
1 -339 263 0
1 339 -260 0
1 339 325 0
1 -339 -371 0
1 -339 273 0
1 -339 323 0
1 -338 -284 0
1 338 -374 0
1 338 -370 0
1 -338 -263 0
1 338 260 0
1 -338 -330 0
1 -338 -273 0
1 344 -375 0
1 344 -323 0
1 344 337 0
1 344 377 0
1 344 333 0
1 345 -378 0
1 345 -374 0
1 -345 375 0
1 345 337 0
1 345 -325 0
1 345 344 0
1 345 333 0
1 -345 273 0
1 345 343 0
1 345 -323 0
1 375 -338 0
1 -375 253 0
1 -375 -339 0
1 -375 -333 0
1 -375 -345 0
1 -333 -338 0
1 333 -340 0
1 -333 344 0
1 333 -256 0
1 -333 339 0
1 -333 -341 0
1 -333 345 0
1 -374 -338 0
1 -374 -340 0
1 -374 -344 0
1 374 -339 0
1 -374 -341 0
1 376 -338 0
1 -376 -374 0
1 376 -344 0
1 376 -339 0
1 376 345 0
1 358 -301 0
1 358 -312 0
1 -358 353 0
1 -358 -349 0
1 -358 351 0
1 -358 303 0
1 -356 -301 0
1 356 -312 0
1 356 324 0
1 356 355 0
1 -356 -353 0
1 -356 -311 0
1 356 -379 0
1 -356 -354 0
1 356 303 0
1 368 366 0
1 -368 -353 0
1 368 -380 0
1 -368 357 0
1 -368 -311 0
1 -368 -336 0
1 368 379 0
1 -368 -354 0
1 -366 381 0
1 -366 312 0
1 -366 353 0
1 366 380 0
1 -366 311 0
1 -366 368 0
1 366 -354 0
1 353 -372 0
1 -353 -356 0
1 353 -373 0
1 353 358 0
1 354 372 0
1 -354 -362 0
1 -354 366 0
1 354 356 0
1 -354 353 0
1 354 373 0
1 354 368 0
1 -354 350 0
1 355 366 0
1 -355 -356 0
1 355 348 0
1 355 -368 0
1 355 -358 0
1 379 -366 0
1 379 -298 0
1 379 368 0
1 -379 -358 0
1 -365 -359 0
1 365 312 0
1 -365 309 0
1 365 362 0
1 365 -353 0
1 365 357 0
1 -365 -311 0
1 -365 -335 0
1 365 -354 0
1 362 312 0
1 362 -332 0
1 362 -360 0
1 362 353 0
1 362 -380 0
1 -362 308 0
1 362 -367 0
1 -362 -354 0
1 373 381 0
1 -373 -359 0
1 -373 372 0
1 -373 382 0
1 373 363 0
1 373 -360 0
1 373 353 0
1 -373 -341 0
1 -373 383 0
1 -372 359 0
1 -372 382 0
1 372 -363 0
1 372 -360 0
1 372 -353 0
1 372 -364 0
1 372 -383 0
1 372 367 0
1 -372 354 0
1 -357 -378 0
1 357 -372 0
1 -357 362 0
1 -357 -366 0
1 -357 -377 0
1 -357 351 0
1 -357 -371 0
1 -357 373 0
1 357 368 0
1 -359 372 0
1 -359 362 0
1 359 366 0
1 359 377 0
1 359 -371 0
1 -359 -373 0
1 359 368 0
1 380 -362 0
1 -380 -349 0
1 -380 -373 0
1 -380 365 0
1 380 368 0
1 -381 -372 0
1 -381 -362 0
1 381 -380 0
1 -381 373 0
1 -381 368 0
1 -371 -370 0
1 371 -359 0
1 371 -382 0
1 371 -367 0
1 371 361 0
1 -370 338 0
1 -370 359 0
1 -370 -382 0
1 -370 -360 0
1 -370 329 0
1 370 -371 0
1 -370 364 0
1 370 -383 0
1 370 367 0
1 -370 -361 0
1 370 -369 0
1 -377 -363 0
1 -377 -344 0
1 -377 369 0
1 -378 -359 0
1 378 329 0
1 378 -377 0
1 378 -364 0
1 -378 -369 0
1 -378 345 0
1 383 378 0
1 -383 -372 0
1 383 377 0
1 383 308 0
1 363 -370 0
1 -363 309 0
1 363 -377 0
1 -363 -371 0
1 -364 378 0
1 -364 -371 0
1 -364 311 0
1 364 -373 0
1 -382 378 0
1 382 -370 0
1 382 312 0
1 -382 372 0
1 -382 377 0
1 382 364 0
